--- Job thunder.gms Start 08/04/20 15:37:10 31.1.0 r55b6ce3 WEX-WEI x86 64bit/MS Windows
--- Applying:
    E:\31.1\gmsprmNT.txt
--- GAMS Parameters defined
    Input C:\Users\hasee\Documents\GitHub\GAMS-MIRO\Thundercloud\thunder.gms
    PageSize 0
    ScrDir C:\Users\hasee\Documents\GitHub\GAMS-MIRO\Thundercloud\225a\
    SysDir E:\31.1\
    LogOption 3
    ErrMsg 1
    ErrorLog 99
    IDE 1
    LstTitleLeftAligned 1
    IDCGenerateJSON conf_thunder/thunder_io.json
    IDCGenerateGDX data_thunder/default.gdx
GAMS 31.1.0   Copyright (C) 1987-2020 GAMS Development. All rights reserved
Licensee: Michael Ferris Research Group - Eval           G191008/0001AS-GEN
          UW-Madison Computer Sciences Dept.                         DCE244
          E:\31.1\gamslice.txt
          Evaluation license: Not for commercial or production use
--- Starting compilation
--- thunder.gms(191) 3 Mb
--- Starting execution: elapsed 0:00:00.009
--- thunder.gms(155) 4 Mb
--- Generating LP model airplane
--- thunder.gms(173) 5 Mb
---   1,281 rows  2,848 columns  8,055 non-zeroes
--- Executing CPLEX: elapsed 0:00:07.717

IBM ILOG CPLEX   31.1.0 r55b6ce3 Released May 01, 2020 WEI x86 64bit/MS Window
--- GAMS/Cplex licensed for continuous and discrete problems.
Cplex 12.10.0.0

Reading data...
Starting Cplex...
Space for names approximately 0.09 Mb
Use option 'names no' to turn use of names off
Version identifier: 12.10.0.0 | 2019-11-26 | 843d4de2ae
CPXPARAM_Advance                                 0
CPXPARAM_Threads                                 1
CPXPARAM_Parallel                                1
CPXPARAM_Simplex_Limits_Iterations               2000000000
CPXPARAM_TimeLimit                               1000
CPXPARAM_Tune_TimeLimit                          200
Tried aggregator 1 time.
LP Presolve eliminated 485 rows and 907 columns.
Aggregator did 42 substitutions.
Reduced LP has 754 rows, 1899 columns, and 3787 nonzeros.
Presolve time = 0.08 sec. (3.92 ticks)
Initializing dual steep norms . . .

Iteration log . . .
Iteration:     1   Dual objective     =             1.290000
Iteration:   100   Dual objective     =            86.700000
Iteration:   185   Dual objective     =           121.780000
LP status(1): optimal
Cplex Time: 0.08sec (det. 7.46 ticks)

Optimal solution found.
Objective :         144.820000

--- Restarting execution
--- thunder.gms(173) 3 Mb
--- Reading solution for model airplane
--- Executing after solve: elapsed 0:00:07.961
--- thunder.gms(191) 4 Mb
--- GDX File C:\Users\hasee\Documents\GitHub\GAMS-MIRO\Thundercloud\data_thunder/default.gdx
*** Status: Normal completion
--- Job thunder.gms Stop 08/04/20 15:37:18 elapsed 0:00:07.999

TRACE [2020-08-04 15:37:26] Logging facility initialised.
DEBUG [2020-08-04 15:37:26] Database connection established.
DEBUG [2020-08-04 15:37:26] Access Control initialised.
INFO [2020-08-04 15:37:26] New data: 'default.gdx' is being stored in the database. Please wait a until the import is finished.
DEBUG [2020-08-04 15:37:28] Db: Data was imported from table: '_sys_metadata_thunder' (Db.importDataset).
DEBUG [2020-08-04 15:37:28] Db: 1385 rows in table: '_sys_metadata_thunder' were deleted. (Db.deleteRows)
DEBUG [2020-08-04 15:37:28] Db: Metadata (table: '_sys_metadata_thunder') was written to database. (Db.writeMetadata).
DEBUG [2020-08-04 15:37:28] Db: Metadata (table: '_sys_metadata_thunder') was added for scenario: 'default' (Scenario.writeMetadata).
DEBUG [2020-08-04 15:37:28] Db: Data was added to table: 'thunder_flowop' (Db.exportScenDataset).
DEBUG [2020-08-04 15:37:28] Db: Data was added to table: 'thunder__scalars_out' (Db.exportScenDataset).
DEBUG [2020-08-04 15:37:28] Db: Data was added to table: 'thunder_cloudsinfo' (Db.exportScenDataset).
DEBUG [2020-08-04 15:37:28] Db: Data was added to table: 'thunder_crcost' (Db.exportScenDataset).
DEBUG [2020-08-04 15:37:28] Db: Data was added to table: 'thunder_climbdis' (Db.exportScenDataset).
DEBUG [2020-08-04 15:37:28] Db: Data was added to table: 'thunder_upcost' (Db.exportScenDataset).
DEBUG [2020-08-04 15:37:28] Db: Data was added to table: 'thunder_downcost' (Db.exportScenDataset).
DEBUG [2020-08-04 15:37:28] Db: Data was added to table: 'thunder__scalars' (Db.exportScenDataset).
DEBUG [2020-08-04 15:37:28] Db: Data was imported from table: '_sys_scenlocks_thunder' (Db.importDataset).
DEBUG [2020-08-04 15:37:28] Db: 1 rows in table: '_sys_scenlocks_thunder' were deleted. (Db.deleteRows)
DEBUG [2020-08-04 15:37:28] Db: hasee: Lock was added for scenario: '1' (Scenario.lock).
INFO [2020-08-04 15:37:36] Session started (model: 'thunder', user: 'hasee', workdir: 'C:/Users/hasee/Documents/GitHub/GAMS-MIRO/Thundercloud').
DEBUG [2020-08-04 15:37:36] Working directory was created: 'C:/Users/hasee/Documents/GitHub/GAMS-MIRO/Thundercloud'.
DEBUG [2020-08-04 15:37:36] Db: Data was imported from table: '_sys_metadata_thunder' (Db.importDataset).
DEBUG [2020-08-04 15:37:37] Sidebar menu item: 'inputData' selected.
DEBUG [2020-08-04 15:37:37] Loading and rendering scenarios: '1'.
DEBUG [2020-08-04 15:37:37] Db: Data was imported from table: 'thunder_flowop' (Db.importDataset).
DEBUG [2020-08-04 15:37:37] Db: Data was imported from table: 'thunder__scalars_out' (Db.importDataset).
DEBUG [2020-08-04 15:37:38] Db: Data was imported from table: 'thunder_cloudsinfo' (Db.importDataset).
DEBUG [2020-08-04 15:37:38] Db: Data was imported from table: 'thunder_crcost' (Db.importDataset).
DEBUG [2020-08-04 15:37:38] Db: Data was imported from table: 'thunder_climbdis' (Db.importDataset).
DEBUG [2020-08-04 15:37:38] Db: Data was imported from table: 'thunder_upcost' (Db.importDataset).
DEBUG [2020-08-04 15:37:38] Db: Data was imported from table: 'thunder_downcost' (Db.importDataset).
DEBUG [2020-08-04 15:37:38] Db: Data was imported from table: 'thunder__scalars' (Db.importDataset).
DEBUG [2020-08-04 15:37:38] Db: A table named: '_sys_scripts_thunder' does not exist in the database (Db.importDataset).
DEBUG [2020-08-04 15:37:38] Scenario: 'New Scenario' closed.
DEBUG [2020-08-04 15:37:38] Db: Data was imported from table: '_sys_metadata_thunder' (Db.importDataset).
DEBUG [2020-08-04 15:37:38] Db: Data was imported from table: '_sys_scenlocks_thunder' (Db.importDataset).
DEBUG [2020-08-04 15:37:38] Db: 1 rows in table: '_sys_scenlocks_thunder' were deleted. (Db.deleteRows)
DEBUG [2020-08-04 15:37:38] Db: hasee: Lock was added for scenario: '1' (Scenario.lock).
DEBUG [2020-08-04 15:37:38] Dataset: cloudsinfo loaded successfully (mode: scen, overwrite: FALSE)
DEBUG [2020-08-04 15:37:39] Dataset: crcost loaded successfully (mode: scen, overwrite: FALSE)
DEBUG [2020-08-04 15:37:39] Dataset: climbdis loaded successfully (mode: scen, overwrite: FALSE)
DEBUG [2020-08-04 15:37:39] Dataset: upcost loaded successfully (mode: scen, overwrite: FALSE)
DEBUG [2020-08-04 15:37:39] Dataset: downcost loaded successfully (mode: scen, overwrite: FALSE)
DEBUG [2020-08-04 15:37:39] Scenario: '1' was loaded into UI
DEBUG [2020-08-04 15:37:39] Sidebar menu item: 'outputData' selected.
INFO [2020-08-04 15:37:44] Session ended (model: 'thunder', user: 'hasee').
